GLPSOL: GLPK LP/MIP Solver, v4.52
Parameter(s) specified in the command line:
 --model MTAV.mod --data MTAV_pref.dat --output MTAV_asign.sol --log tsp.log
Reading model section from MTAV.mod...
MTAV.mod:20: warning: final NL missing before end of file
MTAV.mod:20: warning: unexpected end of file; missing end statement inserted
20 lines were read
Reading data section from MTAV_pref.dat...
MTAV_pref.dat:12: warning: final NL missing before end of file
12 lines were read
Generating s...
Generating unicaAsignacionCoperativista...
Generating unicaAsignacionCasa...
Model has been successfully generated
GLPK Integer Optimizer, v4.52
7 rows, 9 columns, 27 non-zeros
9 integer variables, all of which are binary
Preprocessing...
6 rows, 9 columns, 18 non-zeros
9 integer variables, all of which are binary
Scaling...
 A: min|aij| =  1.000e+00  max|aij| =  1.000e+00  ratio =  1.000e+00
Problem data seem to be well scaled
Constructing initial basis...
Size of triangular part is 5
Solving LP relaxation...
GLPK Simplex Optimizer, v4.52
6 rows, 9 columns, 18 non-zeros
      0: obj =   8.000000000e+00  infeas =  1.000e+00 (1)
*     1: obj =   5.000000000e+00  infeas =  0.000e+00 (1)
*     2: obj =   5.000000000e+00  infeas =  0.000e+00 (1)
OPTIMAL LP SOLUTION FOUND
Integer optimization begins...
+     2: mip =     not found yet >=              -inf        (1; 0)
+     4: >>>>>   5.000000000e+00 >=   5.000000000e+00   0.0% (1; 0)
+     4: mip =   5.000000000e+00 >=     tree is empty   0.0% (0; 1)
INTEGER OPTIMAL SOLUTION FOUND
Time used:   0.0 secs
Memory used: 0.1 Mb (137280 bytes)
Writing MIP solution to `MTAV_asign.sol'...
